NAME : portgen-32-64
COMMENT : portgen N=32, seed=64
TYPE : TSP
DIMENSION : 32
EDGE_WEIGHT_TYPE : EUC_2D
NODE_COORD_SECTION
1 52575 717250
2 895941 401458
3 715813 340704
4 551527 580493
5 571827 367792
6 570137 830055
7 51213 320464
8 189513 343703
9 138240 633725
10 445911 704324
11 378710 841771
12 811588 967277
13 370897 124520
14 324858 452817
15 189429 87887
16 348884 952336
17 868532 127807
18 489564 477812
19 139073 873794
20 167097 487812
21 54241 599341
22 307365 384316
23 706908 82615
24 764141 85687
25 132574 286859
26 762414 737971
27 461809 702804
28 112178 100238
29 848718 768134
30 911894 238000
31 201630 677733
32 413395 84014
